(declare-fun temp76010_1 () (_ BitVec 64))
(declare-fun temp76010_2 () (_ BitVec 64))
(declare-fun var77740 () (_ BitVec 64))
(declare-fun k!0 () Bool)
(declare-fun ARGNAME_filter_NAMEEND_DIM () (_ BitVec 64))
(declare-fun ARGNAME_data_format_NAMEEND_STRFMT () (_ BitVec 64))
(declare-fun temp76010_3 () (_ BitVec 64))
(declare-fun ARGNAME_out_backprop_NAMEEND_DIM () (_ BitVec 64))
(declare-fun var77770 () (_ BitVec 64))
(declare-fun temp76010_4 () (_ BitVec 64))
(declare-fun temp76010_5 () (_ BitVec 64))
(declare-fun ARGNAME_filter_NAMEEND_DIMSIZE
             ()
             (Array (_ BitVec 64) (_ BitVec 64)))
(declare-fun temp76010_6 () (_ BitVec 64))
(declare-fun temp76010_7 () (_ BitVec 64))
(declare-fun temp76010_8 () (_ BitVec 64))
(declare-fun temp76010_9 () (_ BitVec 64))
(declare-fun temp76010_10 () (_ BitVec 64))
(declare-fun temp76010_11 () (_ BitVec 64))
(declare-fun temp76010_12 () (_ BitVec 64))
(declare-fun temp76010_13 () (_ BitVec 64))
(declare-fun temp76010_14 () (_ BitVec 64))
(declare-fun temp76010_15 () (_ BitVec 64))
(declare-fun temp76010_16 () (_ BitVec 64))
(declare-fun temp76010_17 () (_ BitVec 64))
(declare-fun temp76010_18 () (_ BitVec 64))
(declare-fun var77799 () (_ BitVec 64))
(declare-fun temp76010_19 () (_ BitVec 64))
(declare-fun ARGNAME_out_backprop_NAMEEND_DIMSIZE
             ()
             (Array (_ BitVec 64) (_ BitVec 64)))
(declare-fun temp76010_20 () (_ BitVec 64))
(declare-fun temp76010_21 () (_ BitVec 64))
(declare-fun temp76010_22 () (_ BitVec 64))
(declare-fun temp76010_23 () (_ BitVec 64))
(declare-fun temp76010_24 () (_ BitVec 64))
(declare-fun temp76010_25 () (_ BitVec 64))
(declare-fun temp76010_26 () (_ BitVec 64))
(declare-fun temp76010_27 () (_ BitVec 64))
(declare-fun temp76010_28 () (_ BitVec 64))
(declare-fun temp76010_29 () (_ BitVec 64))
(declare-fun temp76010_30 () (_ BitVec 64))
(declare-fun temp76010_31 () (_ BitVec 64))
(declare-fun temp76010_32 () (_ BitVec 64))
(declare-fun var77832 () (_ BitVec 64))
(declare-fun temp76010_33 () (_ BitVec 64))
(declare-fun temp76010_34 () (_ BitVec 64))
(declare-fun var77833 () (_ BitVec 64))
(declare-fun var77834 () (_ BitVec 64))
(declare-fun temp76010_35 () (_ BitVec 64))
(declare-fun temp76010_36 () (_ BitVec 64))
(declare-fun var275510 () (_ BitVec 64))
(declare-fun temp76010_37 () (_ BitVec 64))
(declare-fun var275528 () (_ BitVec 64))
(declare-fun temp76010_38 () (_ BitVec 64))
(declare-fun temp76010_39 () (_ BitVec 64))
(declare-fun var406582 () (_ BitVec 64))
(declare-fun temp76010_40 () (_ BitVec 64))
(declare-fun var406600 () (_ BitVec 64))
(declare-fun temp76010_41 () (_ BitVec 64))
(declare-fun temp76010_43 () (_ BitVec 64))
(declare-fun temp76010_42 () (_ BitVec 64))
(declare-fun temp76010_44 () (_ BitVec 64))
(declare-fun var603190 () (_ BitVec 64))
(declare-fun temp76010_45 () (_ BitVec 64))
(declare-fun var603208 () (_ BitVec 64))
(declare-fun temp76010_46 () (_ BitVec 64))
(declare-fun temp76010_48 () (_ BitVec 64))
(declare-fun temp76010_47 () (_ BitVec 64))
(declare-fun temp76010_50 () (_ BitVec 64))
(declare-fun temp76010_49 () (_ BitVec 64))
(declare-fun temp76010_52 () (_ BitVec 64))
(declare-fun temp76010_51 () (_ BitVec 64))
(declare-fun temp76010_53 () (_ BitVec 64))
(declare-fun var795723 () (_ BitVec 64))
(declare-fun var795702 () (_ BitVec 64))
(declare-fun var730134 () (_ BitVec 64))
(declare-fun temp76010_54 () (_ BitVec 64))
(declare-fun temp76010_55 () (_ BitVec 64))
(declare-fun var861259 () (_ BitVec 64))
(declare-fun var861238 () (_ BitVec 64))
(declare-fun var730144 () (_ BitVec 64))
(declare-fun temp76010_56 () (_ BitVec 64))
(declare-fun temp76010_57 () (_ BitVec 64))
(declare-fun var926795 () (_ BitVec 64))
(declare-fun var926774 () (_ BitVec 64))
(declare-fun var730147 () (_ BitVec 64))
(declare-fun temp76010_58 () (_ BitVec 64))
(declare-fun temp76010_59 () (_ BitVec 64))
(declare-fun var1123378 () (_ BitVec 64))
(declare-fun temp76010_60 () (_ BitVec 64))
(declare-fun var1188914 () (_ BitVec 64))
(declare-fun temp76010_61 () (_ BitVec 64))
(declare-fun var1254450 () (_ BitVec 64))
(declare-fun temp76010_62 () (_ BitVec 64))
(declare-fun var78184 () (_ BitVec 64))
(assert (or (= ARGNAME_data_format_NAMEEND_STRFMT #x0000000000000000)
    (= ARGNAME_data_format_NAMEEND_STRFMT #x0000000000000001)
    (= ARGNAME_data_format_NAMEEND_STRFMT #x0000000000000002)
    (= ARGNAME_data_format_NAMEEND_STRFMT #x0000000000000003)
    (= ARGNAME_data_format_NAMEEND_STRFMT #x0000000000000004)
    (= ARGNAME_data_format_NAMEEND_STRFMT #x0000000000000005)))
(assert (= temp76010_1 #x0000000000000005))
(assert (= var77740
   (ite (= ARGNAME_filter_NAMEEND_DIM temp76010_1)
        #x0000000000000001
        #x0000000000000000)))
(assert (= temp76010_2 #x0000000000000001))
(assert (= var77740 temp76010_2))
(assert (= temp76010_3 #x0000000000000005))
(assert (= var77770
   (ite (= ARGNAME_out_backprop_NAMEEND_DIM temp76010_3)
        #x0000000000000001
        #x0000000000000000)))
(assert (= temp76010_4 #x0000000000000001))
(assert (= var77770 temp76010_4))
(assert (= temp76010_5 #x0000000000000000))
(assert (= temp76010_6 (select ARGNAME_filter_NAMEEND_DIMSIZE temp76010_5)))
(assert (= temp76010_7 #x0000000000000001))
(assert (= temp76010_8 (select ARGNAME_filter_NAMEEND_DIMSIZE temp76010_7)))
(assert (= temp76010_9 #x0000000000000002))
(assert (= temp76010_10 (select ARGNAME_filter_NAMEEND_DIMSIZE temp76010_9)))
(assert (= temp76010_11 #x0000000000000003))
(assert (= temp76010_12 (select ARGNAME_filter_NAMEEND_DIMSIZE temp76010_11)))
(assert (= temp76010_13 #x0000000000000004))
(assert (= temp76010_14 (select ARGNAME_filter_NAMEEND_DIMSIZE temp76010_13)))
(assert (= temp76010_15 #x0000000000000005))
(assert (= temp76010_16 (select ARGNAME_filter_NAMEEND_DIMSIZE temp76010_15)))
(assert (= temp76010_17 #x0000000000000003))
(assert (= temp76010_18 (select ARGNAME_filter_NAMEEND_DIMSIZE temp76010_17)))
(assert (= var77799 temp76010_18))
(assert (= temp76010_19 #x0000000000000000))
(assert (= temp76010_20 (select ARGNAME_out_backprop_NAMEEND_DIMSIZE temp76010_19)))
(assert (= temp76010_21 #x0000000000000001))
(assert (= temp76010_22 (select ARGNAME_out_backprop_NAMEEND_DIMSIZE temp76010_21)))
(assert (= temp76010_23 #x0000000000000002))
(assert (= temp76010_24 (select ARGNAME_out_backprop_NAMEEND_DIMSIZE temp76010_23)))
(assert (= temp76010_25 #x0000000000000003))
(assert (= temp76010_26 (select ARGNAME_out_backprop_NAMEEND_DIMSIZE temp76010_25)))
(assert (= temp76010_27 #x0000000000000004))
(assert (= temp76010_28 (select ARGNAME_out_backprop_NAMEEND_DIMSIZE temp76010_27)))
(assert (= temp76010_29 #x0000000000000005))
(assert (= temp76010_30 (select ARGNAME_out_backprop_NAMEEND_DIMSIZE temp76010_29)))
(assert (= temp76010_31 #x0000000000000004))
(assert (= temp76010_32 (select ARGNAME_out_backprop_NAMEEND_DIMSIZE temp76010_31)))
(assert (= var77832 temp76010_32))
(assert (= temp76010_33 #x0000000000000004))
(assert (= temp76010_34 (select ARGNAME_filter_NAMEEND_DIMSIZE temp76010_33)))
(assert (= var77833 temp76010_34))
(assert (= var77834 (ite (= var77832 var77833) #x0000000000000001 #x0000000000000000)))
(assert (= temp76010_35 #x0000000000000001))
(assert (= var77834 temp76010_35))
(assert (= temp76010_36 #x0000000000000001))
(assert (= var275510 temp76010_36))
(assert (= temp76010_37 #x0000000000000001))
(assert (= var275528
   (ite (bvslt var275510 temp76010_37) #x0000000000000001 #x0000000000000000)))
(assert (= temp76010_38 #x0000000000000000))
(assert (= var275528 temp76010_38))
(assert (= temp76010_39 #x0000000000000001))
(assert (= var406582 temp76010_39))
(assert (= temp76010_40 #x0000000000000001))
(assert (= var406600
   (ite (bvslt var406582 temp76010_40) #x0000000000000001 #x0000000000000000)))
(assert (= temp76010_41 #x0000000000000000))
(assert (= var406600 temp76010_41))
(assert (= temp76010_43 #x0000000000000000))
(assert (= temp76010_42 temp76010_43))
(assert (= temp76010_44 #x0000000000000001))
(assert (= var603190 temp76010_44))
(assert (= temp76010_45 #x0000000000000001))
(assert (= var603208
   (ite (bvslt var603190 temp76010_45) #x0000000000000001 #x0000000000000000)))
(assert (= temp76010_46 #x0000000000000000))
(assert (= var603208 temp76010_46))
(assert (= temp76010_48 #x00000000000000ff))
(assert (= temp76010_47 temp76010_48))
(assert (= temp76010_50 #x00000000000000ff))
(assert (= temp76010_49 temp76010_50))
(assert (= temp76010_52 #x00000000000000ff))
(assert (= temp76010_51 temp76010_52))
(assert (= temp76010_53 #x0000000000000000))
(assert (= var795723 temp76010_53))
(assert (= var795702 var795723))
(assert (= var730134 var795702))
(assert (= temp76010_54 #x0000000000000000))
(assert (= var730134 temp76010_54))
(assert (= temp76010_55 #x0000000000000000))
(assert (= var861259 temp76010_55))
(assert (= var861238 var861259))
(assert (= var730144 var861238))
(assert (= temp76010_56 #x0000000000000000))
(assert (= var730144 temp76010_56))
(assert (= temp76010_57 #x0000000000000000))
(assert (= var926795 temp76010_57))
(assert (= var926774 var926795))
(assert (= var730147 var926774))
(assert (= temp76010_58 #x0000000000000000))
(assert (= var730147 temp76010_58))
(assert (= temp76010_59 #x0000000000008000))
(assert (= var1123378 temp76010_59))
(assert (= temp76010_60 #x0000000000040000))
(assert (= var1188914 temp76010_60))
(assert (= temp76010_61 #x0000000000200000))
(assert (= var1254450 temp76010_61))
(assert (= temp76010_62 #x0000000000000001))
(assert (= var78184 temp76010_62))
(model-add temp76010_1 () (_ BitVec 64) #x0000000000000005)
(model-add temp76010_2 () (_ BitVec 64) #x0000000000000001)
(model-add var77740 () (_ BitVec 64) #x0000000000000001)
(model-del k!0)
(model-add ARGNAME_filter_NAMEEND_DIM
           ()
           (_ BitVec 64)
           (ite k!0 #x0000000000000005 (bvnot #x0000000000000005)))


